p cnf 13 30
-1 0
-2 0
-3 0
-2 4 0
-5 4 0
2 5 -4 0
4 -6 -7 0
6 -4 -7 0
7 -4 -6 0
6 4 7 0
-7 0
-3 8 0
-5 8 0
3 5 -8 0
-9 8 -10 0
9 -8 -10 0
10 -8 -9 0
9 8 10 0
-10 0
-1 11 0
-5 11 0
1 5 -11 0
11 -12 -13 0
12 -11 -13 0
13 -11 -12 0
12 11 13 0
-13 0
-9 0
6 0
12 0
c 1 v6_0
c 2 v8_0
c 3 v10_0
c 5 i4_0
c 6 v6_1
c 9 v8_1
c 12 v10_1
c 4 k!0
c 7 k!1
c 8 k!2
c 10 k!3
c 11 k!4
c 13 k!5